Solution in this episode: [459, 120, 272, 324, 68, 477, 85, 409, 136, 188, 340, 256, 34, 392, 425, 103, 17, 358, 493, 1, 374, 171, 442, 307, 221, 290, 204, 239, 153, 52, 462, 121, 276, 327, 469, 124, 470, 475, 71, 478, 87, 411, 128, 278, 76, 485, 80, 132, 138, 190, 82, 134, 259, 343, 417, 93, 281, 37, 394, 330, 429, 104, 194, 146, 489, 147, 98, 20, 491, 359, 333, 150, 262, 496, 4, 346, 112, 335, 421, 377, 173, 101, 114, 339, 444, 308, 42, 367, 349, 45, 431, 223, 291, 285, 118, 48, 196, 208, 241, 397, 449, 370, 424, 156, 53, 352, 7, 27, 316, 287, 356, 435, 30, 265, 502, 230, 211, 198, 317, 371, 381, 203, 299, 400, 438, 322, 451, 180, 61, 33, 267, 248, 271, 439, 505, 301, 10, 163, 508, 232, 237, 183, 303, 185, 213, 64, 402, 405, 67, 249, 384, 253, 454, 458, 11, 15, 216, 164, 219, 168, 387, 388]
